60
1 0 36
2 0 5
2 1 14
3 0 40
3 1 15
3 2 26
4 0 35
4 1 37
4 2 26
4 3 33
5 0 30
5 1 17
5 2 9
5 3 14
5 4 31
6 0 29
6 1 5
6 2 24
6 3 33
6 4 13
6 5 29
7 0 29
7 1 16
7 2 22
7 3 13
7 4 24
7 5 8
7 6 25
8 0 36
8 1 30
8 2 36
8 3 19
8 4 23
8 5 36
8 6 37
8 7 15
9 0 31
9 1 21
9 2 8
9 3 28
9 4 30
9 5 7
9 6 36
9 7 9
9 8 10
10 0 4
10 1 27
10 2 26
10 3 10
10 4 1
10 5 11
10 6 29
10 7 19
10 8 3
10 9 36
11 0 20
11 1 23
11 2 21
11 3 14
11 4 36
11 5 19
11 6 24
11 7 12
11 8 39
11 9 16
11 10 21
12 0 20
12 1 35
12 2 9
12 3 24
12 4 39
12 5 29
12 6 21
12 7 4
12 8 28
12 9 14
12 10 6
12 11 7
13 0 18
13 1 26
13 2 14
13 3 31
13 4 37
13 5 26
13 6 40
13 7 2
13 8 24
13 9 33
13 10 40
13 11 34
13 12 7
14 0 11
14 1 4
14 2 26
14 3 8
14 4 27
14 5 1
14 6 20
14 7 18
14 8 38
14 9 3
14 10 34
14 11 2
14 12 22
14 13 39
15 0 5
15 1 17
15 2 23
15 3 29
15 4 13
15 5 25
15 6 20
15 7 12
15 8 15
15 9 31
15 10 17
15 11 30
15 12 37
15 13 5
15 14 18
16 0 8
16 1 10
16 2 20
16 3 1
16 4 14
16 5 15
16 6 7
16 7 30
16 8 34
16 9 5
16 10 33
16 11 31
16 12 23
16 13 2
16 14 36
16 15 3
17 0 21
17 1 37
17 2 36
17 3 37
17 4 40
17 5 3
17 6 32
17 7 17
17 8 7
17 9 31
17 10 18
17 11 6
17 12 24
17 13 17
17 14 28
17 15 34
17 16 28
18 0 9
18 1 33
18 2 2
18 3 15
18 4 27
18 5 31
18 6 3
18 7 35
18 8 38
18 9 12
18 10 26
18 11 39
18 12 14
18 13 18
18 14 37
18 15 2
18 16 28
18 17 28
19 0 3
19 1 2
19 2 1
19 3 18
19 4 21
19 5 7
19 6 35
19 7 4
19 8 13
19 9 32
19 10 13
19 11 39
19 12 18
19 13 35
19 14 24
19 15 4
19 16 40
19 17 38
19 18 9
20 0 19
20 1 24
20 2 29
20 3 5
20 4 2
20 5 11
20 6 9
20 7 18
20 8 39
20 9 38
20 10 26
20 11 26
20 12 31
20 13 35
20 14 2
20 15 15
20 16 1
20 17 8
20 18 21
20 19 38
21 0 17
21 1 3
21 2 32
21 3 31
21 4 35
21 5 2
21 6 32
21 7 33
21 8 33
21 9 36
21 10 13
21 11 39
21 12 22
21 13 27
21 14 16
21 15 31
21 16 27
21 17 14
21 18 40
21 19 9
21 20 4
22 0 21
22 1 24
22 2 17
22 3 20
22 4 25
22 5 1
22 6 7
22 7 25
22 8 18
22 9 13
22 10 37
22 11 18
22 12 27
22 13 8
22 14 25
22 15 25
22 16 12
22 17 10
22 18 19
22 19 31
22 20 19
22 21 4
23 0 20
23 1 1
23 2 26
23 3 13
23 4 22
23 5 6
23 6 31
23 7 25
23 8 39
23 9 25
23 10 2
23 11 13
23 12 14
23 13 24
23 14 22
23 15 36
23 16 33
23 17 5
23 18 16
23 19 20
23 20 38
23 21 20
23 22 34
24 0 30
24 1 40
24 2 23
24 3 36
24 4 19
24 5 24
24 6 2
24 7 22
24 8 8
24 9 18
24 10 21
24 11 2
24 12 9
24 13 36
24 14 25
24 15 10
24 16 35
24 17 38
24 18 17
24 19 12
24 20 9
24 21 1
24 22 39
24 23 7
25 0 12
25 1 21
25 2 36
25 3 28
25 4 30
25 5 25
25 6 4
25 7 12
25 8 1
25 9 25
25 10 5
25 11 10
25 12 9
25 13 5
25 14 34
25 15 19
25 16 28
25 17 33
25 18 6
25 19 6
25 20 37
25 21 22
25 22 18
25 23 22
25 24 39
26 0 27
26 1 16
26 2 32
26 3 24
26 4 25
26 5 27
26 6 30
26 7 21
26 8 23
26 9 33
26 10 34
26 11 14
26 12 24
26 13 33
26 14 1
26 15 24
26 16 6
26 17 26
26 18 28
26 19 24
26 20 13
26 21 19
26 22 19
26 23 31
26 24 24
26 25 23
27 0 12
27 1 17
27 2 32
27 3 39
27 4 39
27 5 19
27 6 13
27 7 14
27 8 14
27 9 23
27 10 12
27 11 30
27 12 25
27 13 15
27 14 34
27 15 7
27 16 26
27 17 5
27 18 33
27 19 13
27 20 28
27 21 30
27 22 28
27 23 15
27 24 1
27 25 40
27 26 5
28 0 10
28 1 7
28 2 27
28 3 37
28 4 26
28 5 15
28 6 26
28 7 5
28 8 22
28 9 30
28 10 6
28 11 12
28 12 36
28 13 12
28 14 40
28 15 26
28 16 7
28 17 31
28 18 7
28 19 6
28 20 22
28 21 24
28 22 17
28 23 1
28 24 5
28 25 9
28 26 19
28 27 8
29 0 13
29 1 31
29 2 37
29 3 26
29 4 13
29 5 35
29 6 19
29 7 26
29 8 25
29 9 6
29 10 18
29 11 14
29 12 14
29 13 19
29 14 38
29 15 16
29 16 18
29 17 40
29 18 13
29 19 4
29 20 32
29 21 39
29 22 22
29 23 29
29 24 29
29 25 14
29 26 33
29 27 3
29 28 22
30 0 39
30 1 13
30 2 32
30 3 6
30 4 29
30 5 40
30 6 18
30 7 27
30 8 2
30 9 5
30 10 27
30 11 33
30 12 29
30 13 20
30 14 12
30 15 15
30 16 18
30 17 32
30 18 18
30 19 38
30 20 11
30 21 22
30 22 10
30 23 8
30 24 18
30 25 18
30 26 22
30 27 21
30 28 3
30 29 11
31 0 19
31 1 26
31 2 11
31 3 16
31 4 9
31 5 6
31 6 13
31 7 34
31 8 2
31 9 39
31 10 29
31 11 11
31 12 17
31 13 25
31 14 35
31 15 6
31 16 39
31 17 8
31 18 5
31 19 25
31 20 21
31 21 38
31 22 30
31 23 5
31 24 16
31 25 24
31 26 5
31 27 39
31 28 30
31 29 37
31 30 32
32 0 32
32 1 27
32 2 5
32 3 33
32 4 8
32 5 13
32 6 3
32 7 38
32 8 39
32 9 13
32 10 19
32 11 35
32 12 7
32 13 6
32 14 17
32 15 23
32 16 16
32 17 4
32 18 4
32 19 22
32 20 8
32 21 20
32 22 16
32 23 10
32 24 34
32 25 34
32 26 32
32 27 4
32 28 12
32 29 5
32 30 27
32 31 39
33 0 23
33 1 20
33 2 8
33 3 4
33 4 18
33 5 13
33 6 3
33 7 21
33 8 26
33 9 36
33 10 38
33 11 31
33 12 27
33 13 17
33 14 18
33 15 11
33 16 30
33 17 20
33 18 30
33 19 27
33 20 2
33 21 13
33 22 26
33 23 11
33 24 29
33 25 14
33 26 1
33 27 1
33 28 25
33 29 15
33 30 19
33 31 29
33 32 27
34 0 25
34 1 22
34 2 27
34 3 8
34 4 12
34 5 26
34 6 30
34 7 36
34 8 18
34 9 25
34 10 23
34 11 2
34 12 21
34 13 29
34 14 17
34 15 6
34 16 19
34 17 11
34 18 34
34 19 15
34 20 23
34 21 11
34 22 15
34 23 39
34 24 18
34 25 37
34 26 22
34 27 1
34 28 26
34 29 27
34 30 15
34 31 5
34 32 34
34 33 7
35 0 29
35 1 23
35 2 24
35 3 17
35 4 22
35 5 13
35 6 14
35 7 40
35 8 20
35 9 35
35 10 34
35 11 39
35 12 31
35 13 36
35 14 10
35 15 2
35 16 8
35 17 38
35 18 29
35 19 39
35 20 20
35 21 33
35 22 2
35 23 15
35 24 26
35 25 13
35 26 38
35 27 12
35 28 29
35 29 29
35 30 25
35 31 14
35 32 18
35 33 28
35 34 9
36 0 9
36 1 22
36 2 1
36 3 32
36 4 34
36 5 16
36 6 1
36 7 9
36 8 20
36 9 34
36 10 20
36 11 15
36 12 28
36 13 2
36 14 3
36 15 25
36 16 25
36 17 20
36 18 21
36 19 26
36 20 20
36 21 5
36 22 7
36 23 15
36 24 37
36 25 24
36 26 37
36 27 18
36 28 20
36 29 15
36 30 28
36 31 9
36 32 34
36 33 16
36 34 24
36 35 18
37 0 1
37 1 5
37 2 22
37 3 20
37 4 4
37 5 14
37 6 25
37 7 2
37 8 37
37 9 10
37 10 13
37 11 36
37 12 39
37 13 19
37 14 7
37 15 33
37 16 16
37 17 38
37 18 29
37 19 30
37 20 22
37 21 6
37 22 33
37 23 8
37 24 4
37 25 34
37 26 20
37 27 6
37 28 2
37 29 11
37 30 36
37 31 27
37 32 20
37 33 35
37 34 21
37 35 31
37 36 40
38 0 20
38 1 1
38 2 28
38 3 19
38 4 29
38 5 28
38 6 15
38 7 29
38 8 8
38 9 26
38 10 26
38 11 12
38 12 28
38 13 29
38 14 34
38 15 23
38 16 14
38 17 2
38 18 22
38 19 25
38 20 14
38 21 30
38 22 17
38 23 15
38 24 5
38 25 3
38 26 3
38 27 5
38 28 27
38 29 1
38 30 36
38 31 27
38 32 21
38 33 15
38 34 8
38 35 1
38 36 28
38 37 13
39 0 16
39 1 12
39 2 19
39 3 22
39 4 2
39 5 9
39 6 36
39 7 12
39 8 39
39 9 26
39 10 10
39 11 24
39 12 18
39 13 16
39 14 2
39 15 32
39 16 28
39 17 8
39 18 11
39 19 14
39 20 31
39 21 25
39 22 29
39 23 40
39 24 35
39 25 37
39 26 1
39 27 9
39 28 15
39 29 2
39 30 11
39 31 17
39 32 13
39 33 36
39 34 27
39 35 40
39 36 10
39 37 3
39 38 23
40 0 38
40 1 6
40 2 22
40 3 24
40 4 31
40 5 21
40 6 23
40 7 4
40 8 22
40 9 16
40 10 17
40 11 26
40 12 1
40 13 39
40 14 20
40 15 35
40 16 8
40 17 8
40 18 23
40 19 16
40 20 38
40 21 17
40 22 32
40 23 31
40 24 12
40 25 38
40 26 9
40 27 39
40 28 29
40 29 7
40 30 18
40 31 19
40 32 15
40 33 29
40 34 7
40 35 2
40 36 7
40 37 14
40 38 38
40 39 40
41 0 14
41 1 39
41 2 25
41 3 14
41 4 16
41 5 7
41 6 38
41 7 39
41 8 1
41 9 15
41 10 22
41 11 9
41 12 21
41 13 10
41 14 5
41 15 3
41 16 4
41 17 31
41 18 23
41 19 36
41 20 30
41 21 34
41 22 21
41 23 24
41 24 17
41 25 27
41 26 17
41 27 27
41 28 20
41 29 1
41 30 37
41 31 7
41 32 37
41 33 17
41 34 29
41 35 35
41 36 22
41 37 29
41 38 26
41 39 10
41 40 20
42 0 8
42 1 26
42 2 26
42 3 22
42 4 38
42 5 19
42 6 5
42 7 34
42 8 25
42 9 25
42 10 25
42 11 20
42 12 32
42 13 3
42 14 25
42 15 2
42 16 1
42 17 2
42 18 15
42 19 19
42 20 19
42 21 18
42 22 8
42 23 12
42 24 26
42 25 6
42 26 29
42 27 16
42 28 7
42 29 34
42 30 33
42 31 8
42 32 12
42 33 22
42 34 36
42 35 7
42 36 6
42 37 29
42 38 12
42 39 11
42 40 33
42 41 14
43 0 19
43 1 23
43 2 19
43 3 10
43 4 7
43 5 5
43 6 11
43 7 24
43 8 8
43 9 31
43 10 36
43 11 33
43 12 12
43 13 25
43 14 34
43 15 18
43 16 25
43 17 20
43 18 30
43 19 6
43 20 2
43 21 1
43 22 16
43 23 28
43 24 21
43 25 34
43 26 19
43 27 4
43 28 31
43 29 30
43 30 31
43 31 40
43 32 10
43 33 29
43 34 24
43 35 22
43 36 14
43 37 15
43 38 31
43 39 15
43 40 36
43 41 38
43 42 8
44 0 29
44 1 31
44 2 10
44 3 38
44 4 18
44 5 3
44 6 40
44 7 23
44 8 17
44 9 34
44 10 11
44 11 33
44 12 7
44 13 38
44 14 15
44 15 36
44 16 6
44 17 1
44 18 8
44 19 12
44 20 36
44 21 29
44 22 28
44 23 28
44 24 30
44 25 4
44 26 12
44 27 8
44 28 8
44 29 5
44 30 11
44 31 11
44 32 38
44 33 13
44 34 17
44 35 39
44 36 1
44 37 27
44 38 20
44 39 13
44 40 31
44 41 11
44 42 16
44 43 37
45 0 23
45 1 33
45 2 32
45 3 8
45 4 22
45 5 5
45 6 1
45 7 2
45 8 18
45 9 38
45 10 9
45 11 14
45 12 29
45 13 25
45 14 4
45 15 34
45 16 19
45 17 3
45 18 29
45 19 23
45 20 22
45 21 20
45 22 13
45 23 23
45 24 3
45 25 21
45 26 2
45 27 17
45 28 17
45 29 32
45 30 1
45 31 13
45 32 3
45 33 15
45 34 9
45 35 12
45 36 3
45 37 9
45 38 36
45 39 36
45 40 39
45 41 28
45 42 35
45 43 28
45 44 19
46 0 30
46 1 22
46 2 5
46 3 1
46 4 28
46 5 34
46 6 17
46 7 21
46 8 7
46 9 38
46 10 9
46 11 14
46 12 29
46 13 38
46 14 24
46 15 21
46 16 29
46 17 33
46 18 22
46 19 4
46 20 37
46 21 33
46 22 30
46 23 19
46 24 38
46 25 34
46 26 14
46 27 28
46 28 36
46 29 36
46 30 35
46 31 36
46 32 18
46 33 37
46 34 38
46 35 39
46 36 10
46 37 25
46 38 17
46 39 34
46 40 33
46 41 1
46 42 32
46 43 18
46 44 26
46 45 29
47 0 6
47 1 10
47 2 27
47 3 15
47 4 11
47 5 18
47 6 7
47 7 28
47 8 3
47 9 16
47 10 31
47 11 1
47 12 1
47 13 22
47 14 2
47 15 13
47 16 13
47 17 32
47 18 1
47 19 34
47 20 5
47 21 28
47 22 21
47 23 19
47 24 36
47 25 13
47 26 39
47 27 35
47 28 39
47 29 25
47 30 18
47 31 1
47 32 21
47 33 21
47 34 36
47 35 4
47 36 31
47 37 2
47 38 30
47 39 30
47 40 9
47 41 12
47 42 17
47 43 27
47 44 37
47 45 5
47 46 22
48 0 25
48 1 8
48 2 31
48 3 32
48 4 11
48 5 30
48 6 28
48 7 20
48 8 3
48 9 10
48 10 21
48 11 29
48 12 15
48 13 19
48 14 33
48 15 18
48 16 18
48 17 22
48 18 2
48 19 31
48 20 10
48 21 14
48 22 39
48 23 18
48 24 26
48 25 39
48 26 13
48 27 13
48 28 39
48 29 37
48 30 24
48 31 8
48 32 33
48 33 37
48 34 3
48 35 11
48 36 16
48 37 27
48 38 22
48 39 19
48 40 12
48 41 18
48 42 28
48 43 38
48 44 32
48 45 28
48 46 18
48 47 19
49 0 25
49 1 37
49 2 4
49 3 4
49 4 26
49 5 29
49 6 9
49 7 33
49 8 30
49 9 11
49 10 11
49 11 2
49 12 3
49 13 8
49 14 26
49 15 21
49 16 12
49 17 15
49 18 21
49 19 28
49 20 20
49 21 33
49 22 29
49 23 30
49 24 6
49 25 13
49 26 24
49 27 35
49 28 32
49 29 37
49 30 15
49 31 14
49 32 37
49 33 28
49 34 23
49 35 25
49 36 29
49 37 16
49 38 32
49 39 16
49 40 35
49 41 29
49 42 17
49 43 22
49 44 34
49 45 24
49 46 12
49 47 9
49 48 27
50 0 20
50 1 19
50 2 15
50 3 35
50 4 28
50 5 25
50 6 32
50 7 23
50 8 3
50 9 21
50 10 17
50 11 11
50 12 35
50 13 30
50 14 12
50 15 19
50 16 20
50 17 30
50 18 14
50 19 16
50 20 6
50 21 17
50 22 9
50 23 16
50 24 37
50 25 20
50 26 31
50 27 37
50 28 1
50 29 34
50 30 25
50 31 34
50 32 23
50 33 27
50 34 5
50 35 30
50 36 26
50 37 14
50 38 31
50 39 22
50 40 23
50 41 3
50 42 24
50 43 10
50 44 1
50 45 2
50 46 11
50 47 4
50 48 4
50 49 11
51 0 40
51 1 37
51 2 15
51 3 24
51 4 8
51 5 1
51 6 39
51 7 21
51 8 36
51 9 19
51 10 34
51 11 35
51 12 37
51 13 29
51 14 26
51 15 8
51 16 28
51 17 7
51 18 19
51 19 29
51 20 39
51 21 30
51 22 38
51 23 9
51 24 37
51 25 33
51 26 1
51 27 34
51 28 18
51 29 3
51 30 30
51 31 4
51 32 17
51 33 36
51 34 20
51 35 16
51 36 23
51 37 29
51 38 30
51 39 32
51 40 35
51 41 9
51 42 16
51 43 37
51 44 34
51 45 10
51 46 2
51 47 11
51 48 4
51 49 39
51 50 25
52 0 5
52 1 5
52 2 26
52 3 30
52 4 3
52 5 32
52 6 3
52 7 7
52 8 31
52 9 22
52 10 9
52 11 24
52 12 13
52 13 38
52 14 3
52 15 17
52 16 19
52 17 9
52 18 27
52 19 16
52 20 29
52 21 29
52 22 14
52 23 11
52 24 27
52 25 31
52 26 11
52 27 23
52 28 12
52 29 6
52 30 23
52 31 30
52 32 17
52 33 36
52 34 14
52 35 21
52 36 33
52 37 1
52 38 37
52 39 30
52 40 17
52 41 13
52 42 26
52 43 2
52 44 2
52 45 35
52 46 13
52 47 36
52 48 36
52 49 5
52 50 3
52 51 29
53 0 33
53 1 2
53 2 10
53 3 29
53 4 26
53 5 16
53 6 18
53 7 6
53 8 28
53 9 27
53 10 39
53 11 2
53 12 34
53 13 8
53 14 19
53 15 8
53 16 29
53 17 2
53 18 4
53 19 15
53 20 10
53 21 37
53 22 32
53 23 13
53 24 19
53 25 31
53 26 19
53 27 36
53 28 4
53 29 31
53 30 10
53 31 24
53 32 20
53 33 12
53 34 27
53 35 8
53 36 8
53 37 37
53 38 7
53 39 2
53 40 33
53 41 4
53 42 27
53 43 26
53 44 39
53 45 29
53 46 5
53 47 17
53 48 34
53 49 19
53 50 40
53 51 24
53 52 20
54 0 12
54 1 9
54 2 25
54 3 25
54 4 1
54 5 14
54 6 4
54 7 29
54 8 24
54 9 10
54 10 15
54 11 2
54 12 13
54 13 18
54 14 25
54 15 18
54 16 27
54 17 19
54 18 15
54 19 34
54 20 32
54 21 18
54 22 4
54 23 21
54 24 8
54 25 28
54 26 4
54 27 8
54 28 20
54 29 25
54 30 4
54 31 4
54 32 25
54 33 24
54 34 32
54 35 11
54 36 2
54 37 20
54 38 10
54 39 23
54 40 13
54 41 4
54 42 9
54 43 23
54 44 29
54 45 17
54 46 33
54 47 2
54 48 10
54 49 33
54 50 18
54 51 27
54 52 19
54 53 16
55 0 29
55 1 16
55 2 37
55 3 36
55 4 23
55 5 16
55 6 7
55 7 18
55 8 9
55 9 20
55 10 28
55 11 23
55 12 22
55 13 40
55 14 36
55 15 11
55 16 22
55 17 22
55 18 15
55 19 17
55 20 26
55 21 30
55 22 7
55 23 19
55 24 1
55 25 13
55 26 9
55 27 11
55 28 10
55 29 38
55 30 22
55 31 33
55 32 38
55 33 18
55 34 5
55 35 23
55 36 12
55 37 30
55 38 40
55 39 15
55 40 14
55 41 29
55 42 14
55 43 27
55 44 37
55 45 35
55 46 21
55 47 25
55 48 4
55 49 20
55 50 15
55 51 21
55 52 32
55 53 39
55 54 40
56 0 10
56 1 4
56 2 38
56 3 12
56 4 5
56 5 31
56 6 30
56 7 26
56 8 2
56 9 36
56 10 19
56 11 13
56 12 27
56 13 2
56 14 4
56 15 5
56 16 25
56 17 12
56 18 7
56 19 31
56 20 11
56 21 29
56 22 22
56 23 12
56 24 1
56 25 12
56 26 5
56 27 15
56 28 6
56 29 39
56 30 40
56 31 16
56 32 8
56 33 5
56 34 38
56 35 34
56 36 38
56 37 18
56 38 29
56 39 37
56 40 17
56 41 25
56 42 4
56 43 32
56 44 4
56 45 16
56 46 28
56 47 38
56 48 23
56 49 29
56 50 21
56 51 5
56 52 15
56 53 35
56 54 4
56 55 13
57 0 16
57 1 10
57 2 39
57 3 19
57 4 24
57 5 36
57 6 2
57 7 1
57 8 18
57 9 28
57 10 27
57 11 12
57 12 19
57 13 24
57 14 34
57 15 21
57 16 7
57 17 23
57 18 28
57 19 1
57 20 26
57 21 6
57 22 7
57 23 17
57 24 32
57 25 22
57 26 27
57 27 29
57 28 26
57 29 36
57 30 35
57 31 33
57 32 1
57 33 6
57 34 8
57 35 3
57 36 17
57 37 11
57 38 25
57 39 8
57 40 27
57 41 17
57 42 23
57 43 20
57 44 21
57 45 30
57 46 13
57 47 39
57 48 16
57 49 2
57 50 10
57 51 37
57 52 35
57 53 28
57 54 15
57 55 19
57 56 35
58 0 13
58 1 26
58 2 23
58 3 10
58 4 10
58 5 19
58 6 28
58 7 18
58 8 27
58 9 24
58 10 12
58 11 17
58 12 2
58 13 17
58 14 22
58 15 4
58 16 8
58 17 7
58 18 8
58 19 33
58 20 5
58 21 26
58 22 22
58 23 31
58 24 21
58 25 12
58 26 18
58 27 2
58 28 18
58 29 14
58 30 15
58 31 11
58 32 27
58 33 19
58 34 28
58 35 32
58 36 29
58 37 26
58 38 31
58 39 14
58 40 18
58 41 17
58 42 20
58 43 22
58 44 37
58 45 12
58 46 6
58 47 9
58 48 29
58 49 1
58 50 14
58 51 3
58 52 40
58 53 12
58 54 29
58 55 28
58 56 4
58 57 34
59 0 37
59 1 3
59 2 9
59 3 8
59 4 9
59 5 16
59 6 30
59 7 6
59 8 25
59 9 7
59 10 38
59 11 7
59 12 11
59 13 19
59 14 18
59 15 17
59 16 21
59 17 35
59 18 29
59 19 3
59 20 8
59 21 39
59 22 34
59 23 21
59 24 25
59 25 26
59 26 5
59 27 32
59 28 24
59 29 3
59 30 37
59 31 11
59 32 16
59 33 14
59 34 28
59 35 38
59 36 14
59 37 11
59 38 19
59 39 18
59 40 31
59 41 23
59 42 26
59 43 33
59 44 9
59 45 24
59 46 13
59 47 22
59 48 11
59 49 14
59 50 32
59 51 21
59 52 8
59 53 14
59 54 3
59 55 34
59 56 30
59 57 27
59 58 6
